p wcnf 114 57 58 
1 112 97 0 
1 -21 -13 0 
1 30 -74 0 
1 16 -88 0 
1 -19 -35 0 
1 24 50 0 
1 -36 15 0 
1 21 114 0 
1 71 -9 0 
1 -10 -9 0 
1 -41 94 0 
1 -10 -113 0 
1 101 59 0 
1 -25 -17 0 
1 -29 107 0 
1 -22 62 0 
1 -96 110 0 
1 4 103 0 
1 -101 -87 0 
1 -83 12 0 
1 88 -42 0 
1 50 68 0 
1 12 -58 0 
1 31 106 0 
1 113 -44 0 
1 79 81 0 
1 96 -83 0 
1 86 41 0 
1 -88 28 0 
1 -53 -103 0 
1 -97 -57 0 
1 84 -12 0 
1 41 -64 0 
1 73 14 0 
1 -31 -106 0 
1 55 112 0 
1 -104 -56 0 
1 99 92 0 
1 -93 68 0 
1 77 -83 0 
1 -72 -23 0 
1 5 -15 0 
1 -10 -114 0 
1 32 -106 0 
1 23 48 0 
1 -6 106 0 
1 23 37 0 
1 -39 -78 0 
1 -83 114 0 
1 -91 -42 0 
1 -24 -32 0 
1 -52 -12 0 
1 94 61 0 
1 -34 31 0 
1 -16 -28 0 
1 -42 89 0 
1 32 -88 0 
